SCIP Status        : solving was interrupted [time limit reached]
Total Time         :    3600.03
  solving          :    3600.02
  presolving       :       0.03 (included in solving)
  reading          :       0.01
  copying          :       0.64 (173 #copies) (minimal 0.00, maximal 0.03, average 0.00)
Original Problem   :
  Problem name     : water4
  Variables        : 195 (126 binary, 0 integer, 0 implicit integer, 69 continuous)
  Constraints      : 137 initial, 137 maximal
  Objective        : minimize, 3 non-zeros (abs.min = 1, abs.max = 10)
Presolved Problem  :
  Problem name     : t_water4
  Variables        : 266 (126 binary, 0 integer, 0 implicit integer, 140 continuous)
  Constraints      : 135 initial, 715 maximal
  Objective        : minimize, 101 non-zeros (abs.min = 1.7, abs.max = 422.148)
  Nonzeros         : 651 constraint, 842 clique table
Presolvers         :   ExecTime  SetupTime  Calls  FixedVars   AggrVars   ChgTypes  ChgBounds   AddHoles    DelCons    AddCons   ChgSides   ChgCoefs
  boundshift       :       0.00       0.00      0          0          0          0          0          0          0          0          0          0
  convertinttobin  :       0.00       0.00      0          0          0          0          0          0          0          0          0          0
  domcol           :       0.00       0.00      2          0          0          0          0          0          0          0          0          0
  dualagg          :       0.00       0.00      0          0          0          0          0          0          0          0          0          0
  dualcomp         :       0.00       0.00      2          0          0          0          0          0          0          0          0          0
  dualinfer        :       0.00       0.00      0          0          0          0          0          0          0          0          0          0
  dualsparsify     :       0.00       0.00      1          0          0          0          0          0          0          0          0          0
  gateextraction   :       0.00       0.00      0          0          0          0          0          0          0          0          0          0
  implics          :       0.00       0.00      4          0          0          0          0          0          0          0          0          0
  inttobinary      :       0.00       0.00      0          0          0          0          0          0          0          0          0          0
  qpkktref         :       0.00       0.00      0          0          0          0          0          0          0          0          0          0
  redvub           :       0.00       0.00      0          0          0          0          0          0          0          0          0          0
  sparsify         :       0.00       0.00      1          0          0          0          0          0          0          0          0          0
  stuffing         :       0.00       0.00      0          0          0          0          0          0          0          0          0          0
  trivial          :       0.00       0.00      6          0          0          0          0          0          0          0          0          0
  tworowbnd        :       0.00       0.00      0          0          0          0          0          0          0          0          0          0
  dualfix          :       0.00       0.00      6          0          0          0          0          0          0          0          0          0
  genvbounds       :       0.00       0.00      0          0          0          0          0          0          0          0          0          0
  probing          :       0.01       0.00      2          0          0          0         16          0          0          0          0          0
  pseudoobj        :       0.00       0.00      0          0          0          0          0          0          0          0          0          0
  symmetry         :       0.00       0.00      1          0          0          0          0          0          0          0          0          0
  vbounds          :       0.00       0.00      2          0          0          0          0          0          0          0          0          0
  varbound         :       0.00       0.00      7          0          0          0          0          0          0          0          2          2
  setppc           :       0.00       0.00     10          0          0          0          0          0          0          0          0          0
  linear           :       0.00       0.00     10          0          2          0         88          0          2          0          0          0
  logicor          :       0.00       0.00      0          0          0          0          0          0          0          0          0          0
  bounddisjunction :       0.00       0.00      0          0          0          0          0          0          0          0          0          0
  nonlinear        :       0.01       0.00     12          0          0          0          1          0          0          0          0         -2
  benders          :       0.00       0.00      0          0          0          0          0          0          0          0          0          0
  components       :       0.00       0.00      1          0          0          0          0          0          0          0          0          0
  root node        :          -          -      -          0          -          -         82          -          -          -          -          -
Constraints        :     Number  MaxNumber  #Separate #Propagate    #EnfoLP    #EnfoRelax  #EnfoPS    #Check   #ResProp    Cutoffs    DomReds       Cuts    Applied      Conss   Children
  benderslp        :          0          0          0          0     630124          0        108     206779          0          0          0          0          0          0          0
  integral         :          0          0          0          0     630124          0          0     206779          0          0      25616          0          0         71    1233848
  varbound         :         56+        57         66    4119669          0          0        108     206774     113798       2229    1446788          0          0          0          0
  setppc           :         14+        16         66    4120177          0          0        108      36677     134651       8234    2451241          0          0          0          0
  linear           :         50+        58         66    4112078          0          0          0      28728     197985      17923    5244496        104          7          0          0
  logicor          :          0+        23         66     355895          0          0          0          0       2797         15      40408          0          0          0          0
  bounddisjunction :          0+       580          0    1997021          0          0          0          0      68608        986    1381029          0          0          0          0
  nonlinear        :         15         15    2491015    4093154      10131          0        108      14439          0      32751   15293668    8272266    7135683          0      15936
  benders          :          0          0          0          0          0          0        108        100          0          0          0          0          0          0          0
  countsols        :          0          0          0          0          0          0        108        100          0          0          0          0          0          0          0
  components       :          0          0          0          0          0          0          0          0          0          0          0          0          0          0          0
Constraint Timings :  TotalTime  SetupTime   Separate  Propagate     EnfoLP     EnfoPS     EnfoRelax   Check    ResProp    SB-Prop
  benderslp        :       0.21       0.00       0.00       0.00       0.17       0.00       0.00       0.03       0.00       0.00
  integral         :      16.82       0.00       0.00       0.00      16.76       0.00       0.00       0.06       0.00       0.00
  varbound         :       9.26       0.00       0.00       8.11       0.00       0.00       0.00       1.06       0.06       0.03
  setppc           :      10.79       0.00       0.00      10.59       0.00       0.00       0.00       0.10       0.04       0.05
  linear           :      29.84       0.00       0.01      29.37       0.00       0.00       0.00       0.07       0.26       0.15
  logicor          :       0.92       0.00       0.00       0.91       0.00       0.00       0.00       0.00       0.02       0.00
  bounddisjunction :      21.46       0.00       0.00      21.11       0.00       0.00       0.00       0.00       0.30       0.05
  nonlinear        :     462.17       0.00     268.26     192.15       0.64       0.00       0.00       0.26       0.00       0.87
  benders          :       0.00       0.00       0.00       0.00       0.00       0.00       0.00       0.00       0.00       0.00
  countsols        :       0.00       0.00       0.00       0.00       0.00       0.00       0.00       0.00       0.00       0.00
  components       :       0.37       0.00       0.00       0.37       0.00       0.00       0.00       0.00       0.00       0.00
Propagators        : #Propagate   #ResProp    Cutoffs    DomReds
  dualfix          :          9          0          0          0
  genvbounds       :    1451840      26054      44246    1256584
  nlobbt           :          0          0          0          0
  obbt             :          8          0          0          2
  probing          :          0          0          0          0
  pseudoobj        :    4696626      49881       5492    1069111
  redcost          :    4581034          0          0    3096759
  rootredcost      :          8          0          0          2
  symmetry         :          0          0          0          0
  vbounds          :    1963083          0          0          0
Propagator Timings :  TotalTime  SetupTime   Presolve  Propagate    ResProp    SB-Prop
  dualfix          :       0.00       0.00       0.00       0.00       0.00       0.00
  genvbounds       :       7.63       0.00       0.00       7.59       0.03       0.00
  nlobbt           :       0.00       0.00       0.00       0.00       0.00       0.00
  obbt             :       0.20       0.00       0.00       0.20       0.00       0.00
  probing          :       0.01       0.00       0.01       0.00       0.00       0.00
  pseudoobj        :       8.38       0.00       0.00       8.05       0.33       0.00
  redcost          :      32.51       0.00       0.00      32.51       0.00       0.00
  rootredcost      :       0.83       0.00       0.00       0.83       0.00       0.00
  symmetry         :       0.51       0.00       0.00       0.51       0.00       0.00
  vbounds          :       1.68       0.00       0.00       1.67       0.00       0.01
Conflict Analysis  :       Time      Calls    Success    DomReds  Conflicts   Literals    Reconvs ReconvLits   Dualrays   Nonzeros   LP Iters   (pool size: [10000,10000])
  propagation      :       1.59      61601      33886          -      66738       17.4      40986        4.3          -          -          -
  infeasible LP    :       0.34       8815       3502          -        374        7.9        310        3.8       3496       13.5          0
  bound exceed. LP :      12.25     203543        197          -        949       27.4        295        4.0         13        1.0       5638
  strong branching :       0.00          0          0          -          0        0.0          0        0.0          -          -          0
  pseudo solution  :       0.00          6          6          -          6        8.0          0        0.0          -          -          -
  applied globally :       0.29          -          -         13      48750        6.5          -          -        336          -          -
  applied locally  :          -          -          -          0       6882       25.2          -          -       3173          -          -
Separators         :   ExecTime  SetupTime      Calls  RootCalls    Cutoffs    DomReds  FoundCuts ViaPoolAdd  DirectAdd    Applied ViaPoolApp  DirectApp      Conss
  cut pool         :      30.14          -     414471        133          -          -    1335485    1254089          -          -          -          -          -    (maximal pool size:       2724)
  aggregation      :     335.10       0.00     149411         66          0          0    1191456    1118133        310     232086     232025         61          0
  > cmir           :          -          -          -          -          -          -          -     923748        154     171190     171159         31          -
  > flowcover      :          -          -          -          -          -          -          -      91090         84      24596      24582         14          -
  > knapsackcover  :          -          -          -          -          -          -          -     103295         72      36300      36284         16          -
  cgmip            :       0.00       0.00          0          0          0          0          0          0          0          0          0          0          0
  clique           :       0.00       0.00         66         66          0          0          4         59          0          4          4          0          0
  closecuts        :       0.00       0.00          0          0          0          0          0          0          0          0          0          0          0
  convexproj       :       0.00       0.00          0          0          0          0          0          0          0          0          0          0          0
  disjunctive      :       0.00       0.00          0          0          0          0          0          0          0          0          0          0          0
  eccuts           :       0.00       0.00          0          0          0          0          0          0          0          0          0          0          0
  gauge            :       0.00       0.00          0          0          0          0          0          0          0          0          0          0          0
  gomory           :      31.33       0.00     119752         10          0          0     106696      98578        419      12993      12964         29          0
  > gomorymi       :          -          -          -          -          -          -          -      94256        414      11949      11921         28          -
  > strongcg       :          -          -          -          -          -          -          -       4322          5       1044       1043          1          -
  impliedbounds    :       2.63       0.00     149411         66          0          0       5621       4672          0       1609       1609          0          0
  interminor       :       0.00       0.00          0          0          0          0          0          0          0          0          0          0          0
  intobj           :       0.00       0.00          0          0          0          0          0          0          0          0          0          0          0
  mcf              :       0.00       0.00          1          1          0          0          0          0          0          0          0          0          0
  minor            :       0.09       0.00          0          0          0          0          0          0          0          0          0          0          0
  mixing           :       3.17       0.00     153106         66          0          0      25267      21736          0       9340       9340          0          0
  oddcycle         :       0.00       0.00          0          0          0          0          0          0          0          0          0          0          0
  rapidlearning    :       0.01       0.00          0          0          0          0          0          0          0          0          0          0          0
  rlt              :       0.00       0.00         10         10          0          0          0          0          0          0          0          0          0
  zerohalf         :      13.42       0.00     119762         20          0          0       7181      10911         21       7238       7229          9          0
Cutselectors       :   ExecTime  SetupTime      Calls  RootCalls   Selected     Forced   Filtered  RootSelec   RootForc   RootFilt 
  hybrid           :       4.37       0.00    2164763         69    7645206      84708    1871295        317          0       1114
Pricers            :   ExecTime  SetupTime      Calls       Vars
  problem variables:       0.00          -          0          0
Branching Rules    :   ExecTime  SetupTime   BranchLP  BranchExt   BranchPS    Cutoffs    DomReds       Cuts      Conss   Children
  allfullstrong    :       0.00       0.00          0          0          0          0          0          0          0          0
  cloud            :       0.00       0.00          0          0          0          0          0          0          0          0
  distribution     :       0.00       0.00          0          0          0          0          0          0          0          0
  fullstrong       :       0.00       0.00          0          0          0          0          0          0          0          0
  inference        :       0.00       0.00          0          0          0          0          0          0          0          0
  leastinf         :       0.00       0.00          0          0          0          0          0          0          0          0
  lookahead        :       0.00       0.00          0          0          0          0          0          0          0          0
  mostinf          :       0.00       0.00          0          0          0          0          0          0          0          0
  multaggr         :       0.00       0.00          0          0          0          0          0          0          0          0
  nodereopt        :       0.00       0.00          0          0          0          0          0          0          0          0
  pscost           :       0.00       0.00          0        108          0          0          0          0          0        216
  random           :       0.00       0.00          0          0          0          0          0          0          0          0
  relpscost        :      16.29       0.00     619993          0          0          0      25616          0         74    1233848
  vanillafullstrong:       0.00       0.00          0          0          0          0          0          0          0          0
Primal Heuristics  :   ExecTime  SetupTime      Calls      Found       Best
  LP solutions     :       0.00          -          -          0          0
  relax solutions  :       0.00          -          -          0          0
  pseudo solutions :       0.00          -          -          0          0
  strong branching :       0.01          -          -          0          0
  actconsdiving    :       0.00       0.00          0          0          0
  adaptivediving   :       1.06       0.00        312          0          0
  alns             :       3.64       0.00         30          0          0
  bound            :       0.00       0.00          0          0          0
  clique           :       0.00       0.00          1          0          0
  coefdiving       :       0.00       0.00          0          0          0
  completesol      :       0.00       0.00          0          0          0
  conflictdiving   :       4.57       0.00       1937          0          0
  crossover        :       3.83       0.00         38         22          3
  dins             :       0.00       0.00          0          0          0
  distributiondivin:     168.05       0.00       1933          0          0
  dps              :       0.00       0.00          0          0          0
  dualval          :       0.00       0.00          0          0          0
  farkasdiving     :       0.07       0.00          1          0          0
  feaspump         :       0.14       0.00         43          0          0
  fixandinfer      :       0.00       0.00          0          0          0
  fracdiving       :       4.52       0.00       1937          0          0
  gins             :       0.30       0.00          0          0          0
  guideddiving     :       4.03       0.00       1937          0          0
  indicator        :       0.59       0.00          0          0          0
  indicatordiving  :       0.00       0.00          0          0          0
  intdiving        :       0.00       0.00          0          0          0
  intshifting      :       0.07       0.00        127          0          0
  linesearchdiving :       4.63       0.00       1936          0          0
  localbranching   :       0.00       0.00          0          0          0
  locks            :       0.00       0.00          1          0          0
  lpface           :       0.25       0.00          0          0          0
  mpec             :      14.80       0.00         11          0          0
  multistart       :       0.00       0.00          0          0          0
  mutation         :       0.00       0.00          0          0          0
  nlpdiving        :       0.69       0.00          6          0          0
  objpscostdiving  :       5.67       0.00        967          0          0
  octane           :       0.00       0.00          0          0          0
  ofins            :       0.22       0.00          0          0          0
  oneopt           :       0.29       0.00          8          0          0
  padm             :       0.00       0.00          0          0          0
  proximity        :       0.00       0.00          0          0          0
  pscostdiving     :       5.78       0.00       1934          0          0
  randrounding     :       2.55       0.00     192397          0          0
  rens             :       1.21       0.00          1          0          0
  reoptsols        :       0.00       0.00          0          0          0
  repair           :       0.00       0.00          0          0          0
  rins             :      10.50       0.00        104         64          3
  rootsoldiving    :       6.78       0.00        967          0          0
  rounding         :       1.04       0.00      23432          0          0
  shiftandpropagate:       0.00       0.00          1          0          0
  shifting         :       1.70       0.00       8013          0          0
  simplerounding   :       0.78       0.00          0          0          0
  subnlp           :       4.12       0.00        745         13          2
  trivial          :       0.00       0.00          2          0          0
  trivialnegation  :       0.00       0.00          0          0          0
  trustregion      :       0.00       0.00          0          0          0
  trysol           :       0.44       0.00          0          0          0
  twoopt           :       0.00       0.00          0          0          0
  undercover       :       0.00       0.00          1          0          0
  vbounds          :       0.00       0.00          0          0          0
  veclendiving     :       4.44       0.00       1937          0          0
  zeroobj          :       0.00       0.00          0          0          0
  zirounding       :       0.26       0.00       1000          0          0
  other solutions  :          -          -          -          0          -
Expressions        :   #IntEval  IntEvalTi   #RevProp  RevPropTi    DomReds    Cutoffs  #Estimate  EstimTime  Branching  #Simplify SimplifyTi Simplified
  pow              :   72766919       7.76     257210       0.10     231179          0   30597861       1.95      42054         84       0.00          0
  prod             :        390       0.00          0       0.00          0          0   26122365       2.62      51834         92       0.00         32
  sum              :        195       0.00          0       0.00          0          0         15       0.00          0        108       0.00         46
  val              :          0       0.00          0       0.00          0          0          0       0.00          0          0       0.00          0
  var              :   35978061       2.05          0       0.00          0          0          0       0.00          0        282       0.00          0
  varidx           :          0       0.00          0       0.00          0          0          0       0.00          0          0       0.00          0
Nlhdlrs            :    Detects  DetectAll DetectTime   #IntEval  IntEvalTi   #RevProp  RevPropTi    DomReds    Cutoffs   #Enforce   EnfoTime       Cuts  Branching
  soc              :          0          0       0.00          0       0.00          0       0.00          0          0          0       0.00          0          0
  convex           :          0          0       0.00          0       0.00          0       0.00          0          0          0       0.00          0          0
  concave          :          0          0       0.00          0       0.00          0       0.00          0          0          0       0.00          0          0
  signomial        :         28         28       0.00          0       0.00          0       0.00          0          0   57128853       5.76         26          0
  quotient         :          0          0       0.00          0       0.00          0       0.00          0          0          0       0.00          0          0
  quadratic        :         15        195       0.00   36751539      33.07   36607899      73.16   12503351      17634          0       0.00          0          0
  default          :        140       1280       0.00   72767466      12.07     257478       0.86     231179        144   56720183      62.74    6152112          0
  bilinear         :         30         30       0.00          0       0.00          0       0.00          0          0   24043684       3.68          1          0
  perspective      :         56         56       0.00          0       0.00          0       0.00      23929          0   45632105     109.80    4069712      11391
LP                 :       Time      Calls Iterations  Iter/call   Iter/sec  Time-0-It Calls-0-It    ItLimit
  primal LP        :     241.09     491974         11       2.20       0.05     241.03     491969
  dual LP          :    1469.57    4035031   26393545       8.42   17960.01     112.94     900892
  lex dual LP      :       0.00          0          0       0.00          -
  barrier LP       :       0.00          0          0       0.00          -       0.00          0
  resolve instable :       0.03         34        795      23.38   31265.98
  diving/probing LP:      26.90      54534     534006       9.79   19854.98
  strong branching :       3.68       5206     107899      20.73   29328.60          -          -       2374
    (at root node) :          -         66       4292      65.03          -
  conflict analysis:       0.16        463       5638      12.18   34604.24
NLP relaxation     :
  solve time       :       0.67 (6 calls)
  convexity        :  nonconvex (120 linear rows, 0 convex ineq., 0 nonconvex ineq., 15 nonlinear eq. or two-sided ineq.)
NLP Solvers        :  #Problems  ProblemTi    #Solves  SolveTime      #Iter  Time/Iter      #Okay #TimeLimit #IterLimit #LObjLimit #Interrupt  #NumError #EvalError  #OutOfMem #LicenseEr #OtherTerm   #GlobOpt    #LocOpt  #Feasible #LocInfeas #GlobInfea #Unbounded   #Unknown
  ipopt            :         39       6.01         60      15.90       4784       0.00         48          0         12          0          0          0          0          0          0          0          0         18          0         24          0          0         18
B&B Tree           :
  number of runs   :          1
  nodes            :     998701 (625000 internal, 373701 leaves)
  feasible leaves  :          0
  infeas. leaves   :     111651
  objective leaves :     262050
  nodes (total)    :     998701 (625000 internal, 373701 leaves)
  nodes left       :     250930
  max depth        :         67
  max depth (total):         67
  backtracks       :     128164 (12.8%)
  early backtracks :          0 (0.0%)
  nodes exc. ref.  :          0 (0.0%)
  delayed cutoffs  :         27
  repropagations   :       9071 (10258 domain reductions, 24 cutoffs)
  avg switch length:       5.47
  switching time   :     431.20
Root Node          :
  First LP value   : +1.95752122168456e+02
  First LP Iters   :         63 (27061.86 Iter/sec)
  First LP Time    :       0.00
  Final Dual Bound : +3.33392690529609e+02
  Final Root Iters :       1373
  Root LP Estimate : +7.84940597301390e+02
Solution           :
  Solutions found  :         99 (8 improvements)
  First Solution   : +1.14136948449295e+03   (in run 1, after 1 nodes, 0.07 seconds, depth 0, found by <feaspump>)
  Gap First Sol.   :     483.07 %
  Gap Last Sol.    :      80.81 %
  Primal Bound     : +9.30848211281757e+02   (in run 1, after 238190 nodes, 811.60 seconds, depth 25, found by <rins>)
  Dual Bound       : +5.81428331088389e+02
  Gap              :      60.10 %
Integrals          :      Total       Avg%
  primal-dual      :  135688.99      37.69
  primal-ref       :          -          - (not evaluated)
  dual-ref         :          -          - (not evaluated)
